solutions/Insertion/cheapest/E-n101-k14.txt
[[[53], [53, 28], [53, 27, 28], [53, 27, 69, 28], [53, 27, 1, 69, 28], [53, 27, 1, 50, 69, 28], [53, 27, 1, 76, 50, 69, 28], [53, 27, 1, 76, 77, 50, 69, 28], [53, 27, 1, 76, 77, 50, 69, 28]], [[89], [89, 6], [89, 6, 94], [89, 6, 94, 96], [89, 6, 94, 95, 96], [89, 6, 94, 95, 59, 96], [89, 6, 94, 95, 59, 96]], [[58], [58, 40], [58, 40, 13], [58, 40, 13, 97], [58, 40, 13, 87, 97], [58, 40, 13, 87, 92, 97], [58, 40, 13, 87, 92, 37, 97], [58, 40, 13, 87, 92, 37, 98, 97], [58, 40, 13, 87, 92, 37, 98, 97]], [[26], [26, 12], [26, 12, 80], [26, 12, 68, 80], [26, 12, 68, 3, 80], [26, 12, 68, 3, 80]], [[52], [52, 18], [52, 18, 7], [52, 18, 7, 88], [52, 18, 7, 88, 31], [52, 18, 82, 7, 88, 31], [52, 18, 82, 7, 88, 31]], [[99], [99, 93], [99, 93, 85], [99, 93, 85, 91], [99, 93, 85, 91, 100], [99, 93, 85, 91, 100, 61], [99, 93, 85, 91, 100, 61]], [[2], [2, 21], [2, 21, 73], [2, 21, 73, 72], [2, 21, 73, 72, 74], [2, 21, 73, 72, 74, 22], [2, 21, 73, 72, 74, 22, 41], [2, 21, 73, 72, 74, 22, 41, 57], [2, 21, 73, 72, 74, 22, 41, 57, 42], [2, 21, 73, 72, 74, 22, 41, 57, 42, 15], [2, 21, 73, 72, 74, 22, 41, 57, 42, 15, 43], [2, 21, 73, 72, 74, 22, 41, 57, 42, 15, 43]], [[60], [60, 5], [60, 5, 84], [60, 5, 84, 83], [60, 5, 84, 83, 8], [60, 5, 84, 83, 8, 45], [60, 5, 84, 83, 8, 45, 17], [60, 5, 84, 83, 8, 45, 17, 16], [60, 5, 84, 83, 8, 45, 17, 16]], [[70], [70, 30], [70, 30, 10], [70, 30, 10, 62], [70, 30, 10, 62, 90], [70, 30, 10, 62, 90, 32], [70, 30, 10, 62, 90, 32, 20], [70, 30, 10, 62, 90, 32, 20, 51], [70, 30, 10, 62, 90, 32, 20, 51]], [[54], [54, 4], [54, 4, 55], [54, 4, 55, 25], [54, 4, 55, 25, 24], [54, 4, 55, 25, 24, 29], [54, 4, 55, 25, 24, 29, 79], [54, 4, 55, 25, 24, 29, 79, 33], [54, 4, 55, 25, 24, 29, 79, 33]], [[81], [81, 78], [81, 78, 34], [81, 78, 34, 9], [81, 78, 34, 9, 71], [81, 78, 34, 9, 71, 35], [81, 78, 34, 9, 71, 35, 66], [81, 78, 34, 9, 71, 35, 66]], [[75], [75, 56], [75, 56, 23], [75, 56, 23, 39], [75, 56, 23, 39, 67], [75, 56, 23, 39, 67]], [[48], [48, 19], [48, 19, 47], [48, 19, 47, 36], [48, 19, 47, 36, 46], [48, 19, 47, 36, 46]], [[44], [44, 14], [44, 14, 86], [44, 14, 86, 38], [44, 14, 86, 38, 11], [44, 14, 86, 38, 11, 63], [44, 14, 86, 38, 11, 63]], [[49], [49, 64], [49, 64, 65], [49, 64, 65]]]