solutions/Insertion/cheapest/E-n101-k14.sol
Route #1: 53 27 1 76 77 50 69 28
Route #2: 89 6 94 95 59 96
Route #3: 58 40 13 87 92 37 98 97
Route #4: 26 12 68 3 80
Route #5: 52 18 82 7 88 31
Route #6: 99 93 85 91 100 61
Route #7: 2 21 73 72 74 22 41 57 42 15 43
Route #8: 60 5 84 83 8 45 17 16
Route #9: 70 30 10 62 90 32 20 51
Route #10: 54 4 55 25 24 29 79 33
Route #11: 81 78 34 9 71 35 66
Route #12: 75 56 23 39 67
Route #13: 48 19 47 36 46
Route #14: 44 14 86 38 11 63
Route #15: 49 64 65
cost: 1425
